33D32945 STP File, STP Format Version 1.0

SECTION Comments
Name  	"W2_all"
Creator	"Daisy Jørgensen"
Problem	"3-dimensional Geometric Steiner Minimum Tree"
Remark	"Converted automatically."
END

SECTION Graph
Nodes 862
END

SECTION Coordinates
DDD 1 2.03 -29.69 10.31
DDD 2 2.14 -28.64 9.31
DDD 3 0.85 -27.84 9.20
DDD 4 -0.13 -28.17 9.87
DDD 5 2.51 -29.24 7.95
DDD 6 2.88 -28.20 6.90
DDD 7 4.12 -28.80 5.74
DDD 8 5.49 -27.71 6.12
DDD 9 2.88 -28.02 9.57
DDD 10 1.73 -29.76 7.62
DDD 11 3.29 -29.85 8.07
DDD 12 3.25 -27.38 7.33
DDD 13 2.07 -27.95 6.36
DDD 14 5.83 -27.29 5.28
DDD 15 5.18 -27.00 6.75
DDD 16 6.22 -28.24 6.55
DDD 17 2.31 -29.34 11.20
DDD 18 1.08 -30.00 10.36
DDD 19 2.61 -30.46 10.06
DDD 20 0.87 -26.82 8.35
DDD 21 -0.30 -25.97 8.15
DDD 22 -0.47 -25.61 6.68
DDD 23 0.48 -25.15 6.05
DDD 24 -0.20 -24.70 8.99
DDD 25 0.08 -24.95 10.46
DDD 26 1.47 -24.49 10.88
DDD 27 2.38 -24.44 10.06
DDD 28 1.62 -24.16 12.16
DDD 29 1.69 -26.60 7.83
DDD 30 -1.12 -26.46 8.45
DDD 31 -1.06 -24.20 8.92
DDD 32 0.54 -24.14 8.62
DDD 33 0.00 -25.93 10.64
DDD 34 -0.60 -24.46 11.01
DDD 35 1.60 -23.19 12.43
DDD 36 1.75 -24.87 12.85
DDD 37 -1.68 -25.82 6.16
DDD 38 -1.98 -25.51 4.76
DDD 39 -3.41 -25.04 4.59
DDD 40 -4.33 -25.72 5.05
DDD 41 -1.72 -26.74 3.88
DDD 42 -2.34 -28.01 4.41
DDD 43 -1.77 -28.68 5.49
DDD 44 -3.49 -28.54 3.84
DDD 45 -2.32 -29.85 5.98
DDD 46 -4.06 -29.71 4.32
DDD 47 -3.46 -30.36 5.40
DDD 48 -4.02 -31.52 5.89
DDD 49 -2.42 -26.19 6.72
DDD 50 -1.36 -24.79 4.44
DDD 51 -0.74 -26.87 3.80
DDD 52 -2.11 -26.56 2.98
DDD 53 -0.94 -28.31 5.91
DDD 54 -3.91 -28.07 3.06
DDD 55 -1.90 -30.32 6.76
DDD 56 -4.88 -30.08 3.90
DDD 57 -3.90 -32.25 5.22
DDD 58 -3.58 -23.89 3.95
DDD 59 -4.91 -23.32 3.72
DDD 60 -5.34 -23.51 2.27
DDD 61 -4.62 -23.12 1.36
DDD 62 -4.92 -21.83 4.08
DDD 63 -4.81 -21.56 5.57
DDD 64 -4.90 -20.07 5.86
DDD 65 -4.51 -19.76 7.30
DDD 66 -3.08 -20.10 7.57
DDD 67 -2.79 -23.38 3.60
DDD 68 -5.57 -23.77 4.32
DDD 69 -5.78 -21.44 3.76
DDD 70 -4.16 -21.39 3.62
DDD 71 -3.93 -21.90 5.90
DDD 72 -5.55 -22.03 6.05
DDD 73 -5.84 -19.76 5.71
DDD 74 -4.28 -19.58 5.25
DDD 75 -5.09 -20.29 7.91
DDD 76 -4.65 -18.78 7.47
DDD 77 -2.65 -19.35 8.07
DDD 78 -3.04 -20.93 8.13
DDD 79 -2.61 -20.26 6.71
DDD 80 -6.52 -24.11 2.09
DDD 81 -7.05 -24.35 0.76
DDD 82 -7.94 -23.19 0.30
DDD 83 -8.44 -22.44 1.14
DDD 84 -7.85 -25.65 0.73
DDD 85 -8.57 -25.98 -0.59
DDD 86 -9.23 -27.35 -0.51
DDD 87 -9.65 -24.95 -0.88
DDD 88 -7.07 -24.41 2.87
DDD 89 -6.30 -24.45 0.11
DDD 90 -8.54 -25.61 1.45
DDD 91 -7.22 -26.40 0.92
DDD 92 -7.91 -25.97 -1.33
DDD 93 -9.35 -27.61 0.44
DDD 94 -10.12 -27.32 -0.97
DDD 95 -8.64 -28.02 -0.97
DDD 96 -10.38 -25.37 -1.42
DDD 97 -10.03 -24.61 -0.01
DDD 98 -9.25 -24.18 -1.38
DDD 99 -8.11 -23.07 -1.01
DDD 100 -8.93 -22.00 -1.58
DDD 101 -10.39 -22.42 -1.66
DDD 102 -10.70 -23.43 -2.30
DDD 103 -8.41 -21.62 -2.98
DDD 104 -9.27 -20.51 -3.58
DDD 105 -6.98 -21.12 -2.91
DDD 106 -7.67 -23.71 -1.65
DDD 107 -8.86 -21.19 -1.01
DDD 108 -8.45 -22.42 -3.58
DDD 109 -10.23 -20.67 -3.35
DDD 110 -8.99 -19.63 -3.20
DDD 111 -9.16 -20.50 -4.57
DDD 112 -6.92 -20.37 -2.25
DDD 113 -6.38 -21.87 -2.61
DDD 114 -6.68 -20.81 -3.81
DDD 115 -11.26 -21.64 -1.03
DDD 116 -12.69 -21.93 -1.02
DDD 117 -13.44 -20.97 -1.94
DDD 118 -13.44 -19.76 -1.69
DDD 119 -13.25 -21.84 0.41
DDD 120 -12.27 -22.44 1.41
DDD 121 -14.57 -22.61 0.51
DDD 122 -12.05 -23.93 1.24
DDD 123 -10.95 -20.83 -0.53
DDD 124 -12.84 -22.86 -1.34
DDD 125 -13.42 -20.88 0.64
DDD 126 -12.61 -22.27 2.33
DDD 127 -11.39 -21.98 1.30
DDD 128 -15.03 -22.37 1.36
DDD 129 -15.15 -22.37 -0.27
DDD 130 -14.38 -23.59 0.49
DDD 131 -12.41 -24.22 0.35
DDD 132 -11.07 -24.13 1.28
DDD 133 -12.52 -24.42 1.97
DDD 134 -14.07 -21.52 -2.97
DDD 135 -14.83 -20.71 -3.92
DDD 136 -16.30 -20.64 -3.53
DDD 137 -16.87 -21.64 -3.11
DDD 138 -14.70 -21.29 -5.34
DDD 139 -13.85 -20.41 -6.25
DDD 140 -13.41 -20.85 -7.31
DDD 141 -13.62 -19.17 -5.83
DDD 142 -14.04 -22.51 -3.12
DDD 143 -14.46 -19.79 -3.95
DDD 144 -15.61 -21.37 -5.73
DDD 145 -14.28 -22.19 -5.28
DDD 146 -14.34 -18.48 -5.90
DDD 147 -12.73 -18.93 -5.44
DDD 148 -16.88 -19.45 -3.67
DDD 149 -18.28 -19.27 -3.33
DDD 150 -19.19 -20.26 -4.03
DDD 151 -18.69 -21.12 -4.75
DDD 152 -16.37 -18.66 -4.02
DDD 153 -18.56 -18.34 -3.58
DDD 154 -18.39 -19.38 -2.34
DDD 155 -20.49 -20.12 -3.81
DDD 156 -21.47 -21.01 -4.43
DDD 157 -21.76 -20.59 -5.87
DDD 158 -22.17 -21.43 -6.67
DDD 159 -22.76 -21.04 -3.62
DDD 160 -22.61 -21.60 -2.22
DDD 161 -23.82 -21.29 -1.35
DDD 162 -23.61 -21.74 0.08
DDD 163 -24.73 -21.33 0.97
DDD 164 -20.84 -19.40 -3.21
DDD 165 -21.11 -21.95 -4.44
DDD 166 -23.43 -21.59 -4.11
DDD 167 -23.10 -20.10 -3.54
DDD 168 -21.79 -21.20 -1.79
DDD 169 -22.49 -22.60 -2.28
DDD 170 -24.61 -21.77 -1.73
DDD 171 -23.98 -20.31 -1.37
DDD 172 -22.76 -21.34 0.42
DDD 173 -23.53 -22.74 0.10
DDD 174 -25.41 -22.07 1.01
DDD 175 -24.39 -21.14 1.88
DDD 176 -25.17 -20.51 0.59
DDD 177 -21.55 -19.32 -6.16
DDD 178 -21.79 -18.79 -7.50
DDD 179 -20.49 -18.56 -8.25
DDD 180 -19.43 -18.96 -7.76
DDD 181 -22.59 -17.47 -7.42
DDD 182 -22.60 -16.99 -6.07
DDD 183 -24.03 -17.70 -7.87
DDD 184 -21.22 -18.68 -5.46
DDD 185 -22.35 -19.44 -8.02
DDD 186 -22.17 -16.80 -8.03
DDD 187 -23.49 -17.16 -5.66
DDD 188 -24.59 -17.94 -7.08
DDD 189 -24.39 -16.86 -8.29
DDD 190 -24.06 -18.44 -8.54
DDD 191 -20.58 -17.91 -9.41
DDD 192 -19.40 -17.63 -10.22
DDD 193 -18.73 -16.33 -9.79
DDD 194 -19.41 -15.30 -9.71
DDD 195 -19.78 -17.55 -11.70
DDD 196 -18.74 -18.08 -12.69
DDD 197 -18.49 -19.57 -12.47
DDD 198 -19.22 -17.89 -14.12
DDD 199 -21.47 -17.61 -9.75
DDD 200 -18.74 -18.37 -10.12
DDD 201 -19.95 -16.59 -11.92
DDD 202 -20.62 -18.08 -11.83
DDD 203 -17.88 -17.58 -12.57
DDD 204 -18.54 -19.77 -11.49
DDD 205 -19.19 -20.10 -12.95
DDD 206 -17.59 -19.81 -12.82
DDD 207 -18.48 -18.13 -14.76
DDD 208 -20.01 -18.47 -14.29
DDD 209 -19.47 -16.93 -14.26
DDD 210 -17.44 -16.40 -9.51
DDD 211 -16.68 -15.23 -9.09
DDD 212 -15.49 -14.98 -10.01
DDD 213 -15.00 -15.92 -10.63
DDD 214 -16.20 -15.39 -7.65
DDD 215 -15.07 -16.40 -7.48
DDD 216 -13.71 -15.71 -7.47
DDD 217 -12.59 -16.71 -7.72
DDD 218 -12.63 -17.26 -9.10
DDD 219 -16.94 -17.27 -9.59
DDD 220 -17.27 -14.42 -9.11
DDD 221 -16.97 -15.69 -7.09
DDD 222 -15.87 -14.50 -7.32
DDD 223 -15.10 -17.05 -8.24
DDD 224 -15.19 -16.89 -6.62
DDD 225 -13.57 -15.28 -6.58
DDD 226 -13.69 -15.02 -8.19
DDD 227 -12.68 -17.46 -7.06
DDD 228 -11.72 -16.24 -7.58
DDD 229 -12.17 -16.63 -9.72
DDD 230 -12.17 -18.15 -9.12
DDD 231 -13.58 -17.38 -9.38
DDD 232 -15.05 -13.72 -10.08
DDD 233 -13.93 -13.38 -10.92
DDD 234 -12.66 -13.13 -10.13
DDD 235 -12.74 -12.80 -8.95
DDD 236 -15.49 -12.99 -9.55
DDD 237 -14.14 -12.55 -11.43
DDD 238 -13.76 -14.13 -11.56
DDD 239 -11.51 -13.30 -10.78
DDD 240 -10.22 -13.09 -10.13
DDD 241 -9.70 -11.68 -10.37
DDD 242 -8.99 -11.45 -11.35
DDD 243 -9.20 -14.11 -10.63
DDD 244 -9.74 -15.53 -10.72
DDD 245 -8.74 -16.49 -11.35
DDD 246 -7.54 -16.39 -11.04
DDD 247 -9.17 -17.34 -12.16
DDD 248 -11.51 -13.57 -11.75
DDD 249 -10.32 -13.23 -9.15
DDD 250 -8.42 -14.11 -10.00
DDD 251 -8.89 -13.83 -11.54
DDD 252 -10.57 -15.52 -11.27
DDD 253 -9.95 -15.85 -9.80
DDD 254 -10.07 -10.76 -9.48
DDD 255 -9.64 -9.37 -9.60
DDD 256 -8.73 -8.98 -8.44
DDD 257 -8.28 -9.85 -7.70
DDD 258 -10.86 -8.43 -9.65
DDD 259 -11.86 -8.89 -8.73
DDD 260 -11.45 -8.39 -11.05
DDD 261 -10.66 -11.00 -8.71
DDD 262 -9.14 -9.24 -10.46
DDD 263 -10.57 -7.51 -9.39
DDD 264 -12.55 -8.18 -8.59
DDD 265 -10.72 -8.26 -11.71
DDD 266 -11.92 -9.26 -11.24
DDD 267 -12.11 -7.64 -11.11
DDD 268 -8.47 -7.68 -8.31
DDD 269 -7.62 -7.17 -7.25
DDD 270 -8.18 -5.89 -6.65
DDD 271 -9.15 -5.35 -7.18
DDD 272 -6.19 -6.92 -7.77
DDD 273 -6.23 -5.91 -8.79
DDD 274 -5.61 -8.19 -8.37
DDD 275 -8.87 -7.01 -8.95
DDD 276 -7.54 -7.86 -6.52
DDD 277 -5.62 -6.62 -7.01
DDD 278 -5.33 -5.48 -8.86
DDD 279 -6.02 -8.36 -9.26
DDD 280 -4.62 -8.09 -8.47
DDD 281 -5.80 -8.96 -7.76
DDD 282 -7.58 -5.43 -5.55
DDD 283 -8.02 -4.22 -4.88
DDD 284 -7.02 -3.09 -5.07
DDD 285 -5.88 -3.20 -4.60
DDD 286 -8.24 -4.48 -3.38
DDD 287 -8.54 -3.25 -2.71
DDD 288 -6.99 -5.09 -2.76
DDD 289 -6.79 -5.92 -5.17
DDD 290 -8.90 -3.93 -5.26
DDD 291 -9.00 -5.12 -3.27
DDD 292 -8.83 -3.44 -1.78
DDD 293 -7.22 -5.96 -2.32
DDD 294 -6.30 -5.24 -3.47
DDD 295 -6.62 -4.46 -2.07
DDD 296 -7.45 -2.03 -5.74
DDD 297 -6.59 -0.88 -5.99
DDD 298 -7.09 0.36 -5.25
DDD 299 -8.25 0.73 -5.41
DDD 300 -6.50 -0.58 -7.49
DDD 301 -7.85 -0.34 -8.15
DDD 302 -7.71 0.58 -9.36
DDD 303 -6.77 -0.01 -10.40
DDD 304 -6.56 0.91 -11.54
DDD 305 -8.38 -1.99 -6.10
DDD 306 -5.66 -1.08 -5.68
DDD 307 -6.07 -1.37 -7.94
DDD 308 -5.93 0.23 -7.62
DDD 309 -8.46 0.09 -7.49
DDD 310 -8.23 -1.21 -8.45
DDD 311 -7.35 1.46 -9.06
DDD 312 -8.61 0.71 -9.77
DDD 313 -7.17 -0.87 -10.73
DDD 314 -5.89 -0.20 -9.96
DDD 315 -6.05 0.44 -12.26
DDD 316 -7.45 1.21 -11.90
DDD 317 -6.04 1.71 -11.24
DDD 318 -6.21 0.96 -4.46
DDD 319 -6.56 2.15 -3.69
DDD 320 -5.68 3.34 -4.07
DDD 321 -4.45 3.22 -4.02
DDD 322 -6.44 1.88 -2.20
DDD 323 -5.28 0.61 -4.37
DDD 324 -7.51 2.40 -3.87
DDD 325 -5.81 1.12 -2.05
DDD 326 -6.09 2.70 -1.74
DDD 327 -7.34 1.65 -1.83
DDD 328 -6.31 4.44 -4.45
DDD 329 -5.58 5.64 -4.84
DDD 330 -5.92 6.81 -3.92
DDD 331 -6.84 7.57 -4.22
DDD 332 -5.90 6.02 -6.30
DDD 333 -7.41 6.06 -6.53
DDD 334 -5.33 7.39 -6.64
DDD 335 -7.31 4.47 -4.48
DDD 336 -4.60 5.47 -4.79
DDD 337 -5.49 5.34 -6.91
DDD 338 -7.65 5.40 -7.24
DDD 339 -7.88 5.82 -5.68
DDD 340 -7.68 6.98 -6.81
DDD 341 -4.33 7.33 -6.66
DDD 342 -5.67 7.68 -7.53
DDD 343 -5.61 8.05 -5.94
DDD 344 -5.16 6.94 -2.83
DDD 345 -5.38 8.01 -1.87
DDD 346 -4.32 9.10 -2.02
DDD 347 -3.34 9.10 -1.29
DDD 348 -5.36 7.47 -0.44
DDD 349 -5.58 5.97 -0.39
DDD 350 -5.82 5.36 -1.46
DDD 351 -5.51 5.39 0.72
DDD 352 -4.43 6.29 -2.65
DDD 353 -6.28 8.42 -2.02
DDD 354 -6.09 7.91 0.08
DDD 355 -4.48 7.68 -0.03
DDD 356 -4.55 10.01 -2.96
DDD 357 -3.62 11.11 -3.21
DDD 358 -3.51 12.02 -1.99
DDD 359 -2.40 12.46 -1.67
DDD 360 -4.06 11.92 -4.42
DDD 361 -5.38 9.97 -3.53
DDD 362 -2.72 10.74 -3.42
DDD 363 -3.27 12.12 -4.99
DDD 364 -4.74 11.40 -4.94
DDD 365 -4.47 12.78 -4.11
DDD 366 -4.63 12.27 -1.33
DDD 367 -4.66 13.12 -0.15
DDD 368 -3.91 12.48 1.01
DDD 369 -3.25 13.19 1.78
DDD 370 -6.10 13.42 0.27
DDD 371 -6.84 14.36 -0.68
DDD 372 -6.02 15.59 -1.03
DDD 373 -6.12 16.06 -2.18
DDD 374 -5.30 16.09 -0.14
DDD 375 -5.50 11.88 -1.64
DDD 376 -4.23 14.00 -0.36
DDD 377 -6.08 13.84 1.18
DDD 378 -6.60 12.56 0.31
DDD 379 -7.69 14.65 -0.24
DDD 380 -7.05 13.86 -1.52
DDD 381 -4.01 11.16 1.12
DDD 382 -3.34 10.42 2.18
DDD 383 -1.83 10.40 1.97
DDD 384 -1.09 10.47 2.95
DDD 385 -3.87 8.97 2.25
DDD 386 -5.29 8.98 2.05
DDD 387 -3.57 8.36 3.61
DDD 388 -4.56 10.64 0.46
DDD 389 -3.54 10.85 3.06
DDD 390 -3.43 8.43 1.54
DDD 391 -5.63 8.03 2.07
DDD 392 -2.65 7.96 3.60
DDD 393 -3.61 9.07 4.31
DDD 394 -4.24 7.65 3.81
DDD 395 -1.41 10.31 0.72
DDD 396 0.01 10.29 0.38
DDD 397 0.65 11.66 0.60
DDD 398 1.72 11.74 1.20
DDD 399 0.21 9.84 -1.06
DDD 400 -2.06 10.26 -0.04
DDD 401 0.48 9.62 0.97
DDD 402 1.15 10.04 -1.34
DDD 403 0.05 8.85 -1.12
DDD 404 -0.43 10.32 -1.65
DDD 405 -0.01 12.70 0.10
DDD 406 0.49 14.06 0.23
DDD 407 0.46 14.52 1.68
DDD 408 1.49 14.95 2.20
DDD 409 -0.33 15.02 -0.64
DDD 410 0.30 16.39 -0.81
DDD 411 1.39 16.41 -1.87
DDD 412 1.77 17.51 -2.32
DDD 413 1.86 15.31 -2.25
DDD 414 -0.88 12.56 -0.39
DDD 415 1.43 14.10 -0.10
DDD 416 -1.23 15.14 -0.21
DDD 417 -0.44 14.61 -1.54
DDD 418 0.71 16.67 0.07
DDD 419 -0.41 17.04 -1.07
DDD 420 -0.70 14.41 2.31
DDD 421 -0.87 14.81 3.70
DDD 422 0.04 14.00 4.62
DDD 423 0.60 14.56 5.56
DDD 424 -2.33 14.66 4.14
DDD 425 -3.28 15.63 3.47
DDD 426 -4.62 15.67 4.18
DDD 427 -5.51 16.77 3.62
DDD 428 -6.96 16.48 3.84
DDD 429 -1.51 14.05 1.83
DDD 430 -0.63 15.78 3.80
DDD 431 -2.37 14.81 5.13
DDD 432 -2.62 13.73 3.92
DDD 433 -3.42 15.35 2.52
DDD 434 -2.88 16.55 3.48
DDD 435 -4.47 15.84 5.15
DDD 436 -5.08 14.79 4.06
DDD 437 -5.34 16.85 2.64
DDD 438 -5.28 17.63 4.07
DDD 439 -7.32 15.96 3.07
DDD 440 -7.06 15.95 4.68
DDD 441 -7.46 17.34 3.93
DDD 442 0.16 12.71 4.33
DDD 443 1.00 11.82 5.13
DDD 444 2.46 12.26 5.09
DDD 445 3.10 12.30 6.14
DDD 446 0.87 10.39 4.64
DDD 447 -0.33 12.31 3.55
DDD 448 0.68 11.83 6.08
DDD 449 -0.02 10.01 4.92
DDD 450 0.94 10.37 3.64
DDD 451 1.60 9.83 5.04
DDD 452 2.95 12.57 3.90
DDD 453 4.33 13.01 3.73
DDD 454 4.56 14.37 4.38
DDD 455 5.65 14.60 4.91
DDD 456 4.69 13.07 2.24
DDD 457 6.11 13.46 1.98
DDD 458 7.00 12.58 1.40
DDD 459 6.57 14.73 2.32
DDD 460 8.31 12.94 1.16
DDD 461 7.88 15.09 2.08
DDD 462 8.75 14.20 1.50
DDD 463 2.37 12.52 3.08
DDD 464 4.94 12.34 4.15
DDD 465 4.09 13.73 1.80
DDD 466 4.53 12.16 1.85
DDD 467 6.69 11.66 1.15
DDD 468 5.94 15.38 2.75
DDD 469 8.94 12.29 0.74
DDD 470 8.20 16.01 2.33
DDD 471 9.70 14.47 1.33
DDD 472 3.55 15.23 4.32
DDD 473 3.65 16.56 4.90
DDD 474 4.00 16.49 6.39
DDD 475 4.95 17.14 6.81
DDD 476 2.34 17.32 4.72
DDD 477 2.50 18.83 4.66
DDD 478 2.40 19.46 6.04
DDD 479 2.85 20.91 6.02
DDD 480 2.18 21.71 7.08
DDD 481 2.69 14.98 3.88
DDD 482 4.36 17.08 4.43
DDD 483 1.73 17.10 5.48
DDD 484 1.92 17.02 3.86
DDD 485 1.78 19.22 4.07
DDD 486 3.40 19.05 4.27
DDD 487 2.98 18.94 6.67
DDD 488 1.45 19.41 6.35
DDD 489 2.63 21.30 5.13
DDD 490 3.84 20.94 6.17
DDD 491 2.52 22.65 7.06
DDD 492 1.19 21.71 6.92
DDD 493 2.37 21.30 7.98
DDD 494 3.24 15.71 7.14
DDD 495 3.47 15.55 8.57
DDD 496 4.78 14.82 8.84
DDD 497 5.49 15.19 9.77
DDD 498 2.30 14.80 9.22
DDD 499 2.01 15.24 10.65
DDD 500 1.70 16.72 10.75
DDD 501 0.56 17.10 11.05
DDD 502 2.70 17.55 10.52
DDD 503 2.47 15.20 6.73
DDD 504 3.51 16.45 9.00
DDD 505 2.52 13.83 9.23
DDD 506 1.48 14.95 8.67
DDD 507 2.81 15.03 11.21
DDD 508 1.22 14.72 10.98
DDD 509 3.17 17.99 11.28
DDD 510 2.99 17.73 9.58
DDD 511 5.06 13.80 8.03
DDD 512 6.28 13.02 8.18
DDD 513 7.51 13.92 8.20
DDD 514 8.34 13.79 9.10
DDD 515 6.40 11.99 7.05
DDD 516 5.39 10.86 7.14
DDD 517 4.58 10.55 6.06
DDD 518 5.26 10.12 8.31
DDD 519 3.66 9.52 6.14
DDD 520 4.34 9.09 8.40
DDD 521 3.54 8.79 7.30
DDD 522 2.63 7.77 7.38
DDD 523 4.43 13.55 7.29
DDD 524 6.24 12.51 9.04
DDD 525 7.32 11.60 7.09
DDD 526 6.27 12.46 6.18
DDD 527 4.67 11.07 5.22
DDD 528 5.84 10.34 9.10
DDD 529 3.09 9.30 5.35
DDD 530 4.25 8.56 9.25
DDD 531 2.46 7.55 8.34
DDD 532 7.61 14.79 7.20
DDD 533 8.74 15.71 7.10
DDD 534 8.84 16.60 8.34
DDD 535 9.95 16.93 8.76
DDD 536 8.63 16.57 5.85
DDD 537 6.91 14.85 6.50
DDD 538 9.59 15.19 7.02
DDD 539 8.79 16.00 5.04
DDD 540 7.71 16.96 5.80
DDD 541 9.30 17.30 5.89
DDD 542 7.69 16.97 8.89
DDD 543 7.64 17.83 10.07
DDD 544 8.17 17.09 11.30
DDD 545 8.89 17.69 12.10
DDD 546 6.22 18.31 10.33
DDD 547 5.74 19.30 9.28
DDD 548 6.46 20.23 8.91
DDD 549 4.51 19.11 8.80
DDD 550 6.82 16.68 8.49
DDD 551 8.21 18.64 9.92
DDD 552 6.19 18.75 11.22
DDD 553 5.60 17.52 10.32
DDD 554 4.24 18.20 8.48
DDD 555 3.87 19.87 8.75
DDD 556 7.82 15.82 11.42
DDD 557 8.25 15.01 12.55
DDD 558 9.75 14.73 12.48
DDD 559 10.42 14.76 13.51
DDD 560 7.48 13.69 12.59
DDD 561 6.12 13.83 13.22
DDD 562 5.90 14.81 13.97
DDD 563 5.25 12.96 12.98
DDD 564 7.23 15.39 10.73
DDD 565 8.06 15.49 13.40
DDD 566 8.02 13.02 13.11
DDD 567 7.37 13.35 11.65
DDD 568 10.25 14.48 11.27
DDD 569 11.67 14.20 11.07
DDD 570 12.52 15.43 11.37
DDD 571 13.58 15.30 11.98
DDD 572 11.92 13.72 9.64
DDD 573 10.81 12.82 9.12
DDD 574 10.31 11.96 9.84
DDD 575 10.42 13.03 7.87
DDD 576 9.65 14.47 10.47
DDD 577 11.95 13.46 11.68
DDD 578 12.78 13.20 9.62
DDD 579 12.00 14.52 9.04
DDD 580 10.28 13.96 7.53
DDD 581 10.27 12.25 7.25
DDD 582 12.04 16.59 10.93
DDD 583 12.77 17.82 11.15
DDD 584 13.46 18.33 9.90
DDD 585 14.50 18.98 10.00
DDD 586 11.17 16.64 10.43
DDD 587 13.47 17.66 11.85
DDD 588 12.14 18.52 11.47
DDD 589 12.87 18.03 8.74
DDD 590 13.43 18.46 7.47
DDD 591 13.02 19.89 7.14
DDD 592 11.83 20.21 7.21
DDD 593 12.99 17.51 6.34
DDD 594 13.50 16.10 6.58
DDD 595 11.47 17.46 6.25
DDD 596 12.03 17.49 8.72
DDD 597 14.43 18.41 7.51
DDD 598 13.35 17.85 5.47
DDD 599 14.39 15.99 6.14
DDD 600 13.60 15.95 7.57
DDD 601 12.86 15.44 6.21
DDD 602 11.15 18.13 5.58
DDD 603 11.18 16.54 5.97
DDD 604 11.08 17.67 7.15
DDD 605 14.00 20.72 6.80
DDD 606 13.75 22.11 6.46
DDD 607 13.43 22.27 4.97
DDD 608 14.33 22.12 4.15
DDD 609 14.94 22.98 6.84
DDD 610 15.01 23.28 8.32
DDD 611 15.16 24.46 8.69
DDD 612 14.89 22.32 9.12
DDD 613 14.95 20.40 6.76
DDD 614 12.96 22.44 6.99
DDD 615 14.88 23.85 6.34
DDD 616 15.78 22.51 6.57
DDD 617 12.17 22.57 4.67
DDD 618 11.77 22.74 3.29
DDD 619 11.12 21.50 2.71
DDD 620 10.48 20.76 3.45
DDD 621 11.48 22.68 5.38
DDD 622 12.58 22.96 2.73
DDD 623 11.12 23.50 3.23
DDD 624 11.30 21.29 1.41
DDD 625 10.73 20.13 0.74
DDD 626 11.75 19.01 0.61
DDD 627 12.90 19.27 0.25
DDD 628 10.20 20.52 -0.66
DDD 629 8.98 21.42 -0.53
DDD 630 11.27 21.26 -1.44
DDD 631 11.84 21.93 0.86
DDD 632 9.95 19.79 1.26
DDD 633 9.95 19.69 -1.16
DDD 634 8.38 21.28 -1.32
DDD 635 8.49 21.20 0.31
DDD 636 9.28 22.38 -0.51
DDD 637 10.85 21.74 -2.21
DDD 638 11.72 21.93 -0.85
DDD 639 11.95 20.61 -1.78
DDD 640 11.32 17.78 0.90
DDD 641 12.19 16.62 0.82
DDD 642 11.57 15.52 -0.03
DDD 643 10.37 15.57 -0.31
DDD 644 12.50 16.08 2.22
DDD 645 11.34 15.41 2.88
DDD 646 10.06 16.00 3.18
DDD 647 11.27 14.12 3.31
DDD 648 9.25 15.07 3.78
DDD 649 9.99 13.92 3.86
DDD 650 12.17 13.05 3.30
DDD 651 9.58 12.70 4.39
DDD 652 11.77 11.84 3.83
DDD 653 10.49 11.68 4.37
DDD 654 10.37 17.63 1.18
DDD 655 13.06 16.89 0.41
DDD 656 12.79 16.85 2.79
DDD 657 13.25 15.42 2.14
DDD 658 9.82 16.95 2.97
DDD 659 8.31 15.21 4.10
DDD 660 13.09 13.16 2.91
DDD 661 10.23 10.79 4.75
DDD 662 8.67 12.59 4.78
DDD 663 12.40 11.06 3.83
DDD 664 12.39 14.55 -0.43
DDD 665 11.92 13.44 -1.25
DDD 666 11.93 12.13 -0.46
DDD 667 12.77 11.97 0.42
DDD 668 12.78 13.30 -2.51
DDD 669 14.12 13.72 -2.23
DDD 670 12.23 14.16 -3.64
DDD 671 13.35 14.56 -0.17
DDD 672 10.98 13.62 -1.55
DDD 673 12.77 12.34 -2.80
DDD 674 14.74 13.39 -2.95
DDD 675 11.24 14.27 -3.51
DDD 676 12.67 15.06 -3.62
DDD 677 12.40 13.72 -4.52
DDD 678 11.01 11.24 -0.80
DDD 679 10.91 9.95 -0.13
DDD 680 10.62 8.83 -1.12
DDD 681 9.63 8.12 -0.96
DDD 682 9.82 9.98 0.95
DDD 683 8.43 10.20 0.41
DDD 684 8.21 11.05 -0.67
DDD 685 7.34 9.55 0.97
DDD 686 6.94 11.26 -1.17
DDD 687 6.06 9.74 0.48
DDD 688 5.87 10.60 -0.60
DDD 689 4.60 10.80 -1.10
DDD 690 10.35 11.43 -1.53
DDD 691 11.77 9.75 0.34
DDD 692 10.04 10.73 1.59
DDD 693 9.84 9.11 1.44
DDD 694 8.99 11.52 -1.08
DDD 695 7.48 8.93 1.74
DDD 696 6.80 11.87 -1.95
DDD 697 5.28 9.27 0.89
DDD 698 4.11 9.93 -1.12
DDD 699 11.49 8.69 -2.12
DDD 700 11.33 7.66 -3.14
DDD 701 11.79 6.30 -2.62
DDD 702 11.71 5.32 -3.36
DDD 703 12.11 8.03 -4.40
DDD 704 11.20 8.44 -5.55
DDD 705 10.50 9.46 -5.41
DDD 706 11.19 7.73 -6.58
DDD 707 12.28 9.30 -2.20
DDD 708 10.36 7.59 -3.40
DDD 709 12.65 7.24 -4.69
DDD 710 12.72 8.79 -4.19
DDD 711 12.26 6.27 -1.38
DDD 712 12.73 5.04 -0.77
DDD 713 11.64 3.97 -0.77
DDD 714 11.95 2.78 -0.71
DDD 715 13.21 5.29 0.66
DDD 716 13.54 4.01 1.41
DDD 717 14.59 3.40 1.09
DDD 718 12.77 3.63 2.30
DDD 719 12.30 7.11 -0.83
DDD 720 13.51 4.69 -1.28
DDD 721 12.48 5.77 1.16
DDD 722 14.02 5.87 0.63
DDD 723 10.39 4.41 -0.82
DDD 724 9.25 3.50 -0.83
DDD 725 9.44 2.40 -1.87
DDD 726 8.92 1.29 -1.68
DDD 727 7.96 4.25 -1.10
DDD 728 10.19 5.39 -0.86
DDD 729 9.16 3.07 0.07
DDD 730 7.85 4.98 -0.43
DDD 731 7.99 4.65 -2.02
DDD 732 7.18 3.62 -1.03
DDD 733 10.16 2.71 -2.94
DDD 734 10.41 1.75 -4.00
DDD 735 11.44 0.71 -3.57
DDD 736 11.95 -0.02 -4.42
DDD 737 10.90 2.47 -5.28
DDD 738 11.50 3.72 -4.92
DDD 739 9.73 2.74 -6.21
DDD 740 10.55 3.63 -3.03
DDD 741 9.56 1.28 -4.24
DDD 742 11.56 1.89 -5.74
DDD 743 11.61 4.28 -5.74
DDD 744 10.06 3.23 -7.02
DDD 745 9.32 1.87 -6.49
DDD 746 9.05 3.30 -5.74
DDD 747 11.72 0.66 -2.28
DDD 748 12.68 -0.30 -1.73
DDD 749 12.11 -1.71 -1.72
DDD 750 12.85 -2.66 -1.96
DDD 751 13.10 0.11 -0.32
DDD 752 14.12 -0.82 0.32
DDD 753 14.40 -0.43 1.76
DDD 754 15.57 -1.22 2.33
DDD 755 15.47 -2.67 2.01
DDD 756 11.27 1.28 -1.63
DDD 757 13.51 -0.29 -2.30
DDD 758 12.28 0.12 0.26
DDD 759 13.49 1.03 -0.36
DDD 760 14.97 -0.78 -0.21
DDD 761 13.76 -1.76 0.30
DDD 762 13.59 -0.61 2.31
DDD 763 14.62 0.55 1.79
DDD 764 15.58 -1.10 3.32
DDD 765 16.42 -0.86 1.94
DDD 766 14.83 -3.10 2.65
DDD 767 15.13 -2.78 1.07
DDD 768 16.37 -3.09 2.09
DDD 769 10.81 -1.82 -1.46
DDD 770 10.14 -3.11 -1.42
DDD 771 8.83 -3.08 -2.19
DDD 772 8.37 -2.00 -2.55
DDD 773 9.89 -3.55 0.04
DDD 774 11.11 -3.45 0.79
DDD 775 9.39 -4.98 0.09
DDD 776 10.26 -1.01 -1.28
DDD 777 10.74 -3.81 -1.83
DDD 778 9.20 -2.95 0.44
DDD 779 10.95 -3.78 1.72
DDD 780 10.17 -5.61 0.15
DDD 781 8.80 -5.10 0.89
DDD 782 8.88 -5.19 -0.74
DDD 783 8.25 -4.25 -2.41
DDD 784 6.99 -4.36 -3.14
DDD 785 6.05 -5.35 -2.46
DDD 786 6.51 -6.28 -1.81
DDD 787 7.23 -4.78 -4.59
DDD 788 6.23 -4.23 -5.56
DDD 789 6.62 -3.37 -6.57
DDD 790 4.89 -4.58 -5.46
DDD 791 5.70 -2.86 -7.46
DDD 792 3.97 -4.07 -6.36
DDD 793 4.37 -3.21 -7.35
DDD 794 8.67 -5.10 -2.09
DDD 795 6.54 -3.46 -3.17
DDD 796 7.20 -5.78 -4.63
DDD 797 8.14 -4.47 -4.86
DDD 798 7.59 -3.11 -6.65
DDD 799 4.59 -5.20 -4.74
DDD 800 6.00 -2.24 -8.18
DDD 801 3.01 -4.32 -6.28
DDD 802 3.70 -2.84 -8.00
DDD 803 4.75 -5.13 -2.62
DDD 804 3.74 -6.00 -2.02
DDD 805 3.12 -6.92 -3.07
DDD 806 2.35 -6.45 -3.91
DDD 807 2.64 -5.16 -1.34
DDD 808 2.18 -4.14 -2.24
DDD 809 3.17 -4.50 -0.08
DDD 810 4.43 -4.35 -3.16
DDD 811 4.16 -6.56 -1.31
DDD 812 1.88 -5.77 -1.10
DDD 813 2.93 -3.89 -2.86
DDD 814 4.02 -4.95 0.20
DDD 815 3.35 -3.53 -0.26
DDD 816 2.50 -4.59 0.65
DDD 817 3.46 -8.20 -3.00
DDD 818 2.94 -9.19 -3.93
DDD 819 1.80 -9.98 -3.32
DDD 820 1.76 -10.14 -2.10
DDD 821 4.06 -10.15 -4.39
DDD 822 5.08 -9.41 -5.24
DDD 823 4.78 -10.73 -3.18
DDD 824 4.10 -8.52 -2.29
DDD 825 2.61 -8.72 -4.75
DDD 826 3.66 -10.89 -4.92
DDD 827 4.65 -8.61 -5.66
DDD 828 5.84 -9.11 -4.66
DDD 829 5.42 -10.02 -5.95
DDD 830 5.03 -11.68 -3.37
DDD 831 5.60 -10.20 -2.99
DDD 832 4.17 -10.70 -2.39
DDD 833 0.90 -10.47 -4.17
DDD 834 -0.25 -11.24 -3.71
DDD 835 -0.49 -12.46 -4.60
DDD 836 -0.60 -12.30 -5.82
DDD 837 -1.52 -10.37 -3.67
DDD 838 -1.85 -9.94 -4.99
DDD 839 -1.29 -9.14 -2.80
DDD 840 0.98 -10.31 -5.15
DDD 841 -0.08 -11.56 -2.77
DDD 842 -2.27 -10.91 -3.28
DDD 843 -2.49 -9.17 -4.95
DDD 844 -0.85 -8.42 -3.34
DDD 845 -2.17 -8.81 -2.45
DDD 846 -0.70 -9.38 -2.03
DDD 847 -0.55 -13.63 -3.99
DDD 848 -0.78 -14.87 -4.72
DDD 849 -2.21 -15.36 -4.56
DDD 850 -2.92 -15.34 -5.57
DDD 851 0.20 -15.96 -4.25
DDD 852 1.50 -16.00 -5.03
DDD 853 2.47 -17.02 -4.49
DDD 854 2.19 -17.60 -3.41
DDD 855 3.52 -17.26 -5.13
DDD 856 -0.45 -13.69 -2.99
DDD 857 -0.60 -14.72 -5.69
DDD 858 -0.25 -16.84 -4.35
DDD 859 0.41 -15.79 -3.29
DDD 860 1.93 -15.09 -4.98
DDD 861 1.30 -16.22 -5.98
DDD 862 -2.55 -15.73 -3.44
END

EOF
